NAME : sample1
TYPE : TSP
DIMENSION : 20
EDGE_WEIGHT_TYPE : EUC_2D
NODE_COORD_SECTION
	0	-11,78	-8,6
	1	-2,39	14,94
	2	8,82	8,24
	3	-18,86	-12,3
	4	2,02	-10,75
	5	-13,22	-12,35
	6	-8,14	-15,68
	7	6,17	-9,85
	8	-5,52	5,81
	9	19,7	8,63
	10	-16,16	-9,76
	11	-10,56	18,09
	12	2,7	-10,28
	13	-6,71	-13,83
	14	-0,3	4,48
	15	-3,76	-6,74
	16	10,74	-15,48
	17	-3,31	1,48
	18	4,61	-18,82
	19	1,12	-1,44
EOF